33D32945 STP File, STP Format Version 1.0

SECTION Comment
Name    "i160-343"
Creator "Cees Duin"
Remark  "Incidence graph"
END

SECTION Graph
Nodes 160
Edges 2544
E 1 2 295
E 1 3 308
E 1 7 303
E 1 11 305
E 1 12 304
E 1 13 300
E 1 16 291
E 1 17 297
E 1 18 295
E 1 32 300
E 1 33 298
E 1 36 296
E 1 37 296
E 1 38 296
E 1 40 295
E 1 55 201
E 1 57 202
E 1 66 205
E 1 75 198
E 1 78 195
E 1 83 202
E 1 88 202
E 1 91 199
E 1 97 201
E 1 99 196
E 1 102 199
E 1 103 193
E 1 105 197
E 1 109 195
E 1 112 202
E 1 117 198
E 1 118 198
E 1 121 199
E 1 122 197
E 1 128 201
E 1 133 207
E 1 136 205
E 1 138 198
E 1 139 202
E 1 148 208
E 1 151 204
E 1 152 194
E 1 156 194
E 2 5 293
E 2 8 301
E 2 17 300
E 2 19 302
E 2 21 299
E 2 23 302
E 2 29 302
E 2 35 307
E 2 37 297
E 2 41 199
E 2 49 186
E 2 51 201
E 2 56 199
E 2 68 198
E 2 72 204
E 2 83 212
E 2 84 193
E 2 89 207
E 2 96 195
E 2 97 189
E 2 102 190
E 2 104 199
E 2 105 201
E 2 108 204
E 2 109 197
E 2 119 188
E 2 136 197
E 2 143 204
E 2 144 203
E 2 149 194
E 2 154 200
E 2 156 192
E 2 158 199
E 2 159 198
E 2 160 204
E 3 6 303
E 3 34 298
E 3 36 307
E 3 40 292
E 3 44 193
E 3 48 196
E 3 61 205
E 3 67 208
E 3 76 200
E 3 83 204
E 3 84 204
E 3 92 201
E 3 99 197
E 3 102 205
E 3 116 199
E 3 118 197
E 3 120 198
E 3 121 210
E 3 122 194
E 3 127 201
E 3 144 194
E 3 147 192
E 3 153 204
E 4 10 296
E 4 18 296
E 4 20 308
E 4 32 299
E 4 35 300
E 4 44 193
E 4 52 195
E 4 57 200
E 4 61 203
E 4 66 198
E 4 72 202
E 4 75 204
E 4 77 198
E 4 78 199
E 4 81 205
E 4 92 199
E 4 102 194
E 4 121 205
E 4 125 195
E 4 128 205
E 4 149 206
E 4 150 204
E 4 157 198
E 5 11 300
E 5 17 300
E 5 22 295
E 5 33 297
E 5 48 197
E 5 50 189
E 5 54 196
E 5 56 198
E 5 59 191
E 5 71 200
E 5 75 196
E 5 91 200
E 5 95 202
E 5 102 200
E 5 113 196
E 5 129 196
E 5 130 203
E 5 131 200
E 5 136 198
E 5 137 193
E 5 142 201
E 5 143 194
E 5 144 205
E 5 149 207
E 5 160 209
E 6 16 302
E 6 17 291
E 6 21 299
E 6 29 296
E 6 38 292
E 6 47 199
E 6 59 203
E 6 65 194
E 6 69 198
E 6 70 205
E 6 83 194
E 6 88 193
E 6 89 200
E 6 93 191
E 6 94 204
E 6 95 206
E 6 102 203
E 6 105 202
E 6 106 197
E 6 107 195
E 6 109 196
E 6 112 196
E 6 115 196
E 6 119 198
E 6 122 201
E 6 123 189
E 6 124 205
E 6 127 193
E 6 128 197
E 6 129 202
E 6 136 196
E 6 137 202
E 6 141 203
E 6 143 199
E 6 148 198
E 6 155 199
E 7 13 303
E 7 19 295
E 7 23 298
E 7 33 298
E 7 34 295
E 7 44 201
E 7 51 193
E 7 53 194
E 7 57 196
E 7 59 202
E 7 66 206
E 7 69 195
E 7 74 189
E 7 79 199
E 7 81 192
E 7 83 203
E 7 90 202
E 7 103 198
E 7 104 204
E 7 109 202
E 7 110 195
E 7 121 202
E 7 123 209
E 7 128 200
E 7 134 198
E 7 135 212
E 7 138 196
E 7 140 204
E 7 141 200
E 7 150 198
E 7 159 198
E 8 13 290
E 8 20 301
E 8 28 297
E 8 32 303
E 8 34 299
E 8 36 299
E 8 46 195
E 8 53 197
E 8 56 199
E 8 70 200
E 8 71 202
E 8 73 198
E 8 78 192
E 8 79 202
E 8 82 201
E 8 85 197
E 8 88 193
E 8 93 199
E 8 94 196
E 8 101 207
E 8 102 197
E 8 107 193
E 8 108 203
E 8 109 195
E 8 116 199
E 8 119 190
E 8 134 201
E 8 135 203
E 8 141 196
E 8 149 198
E 8 155 201
E 8 159 199
E 9 15 304
E 9 21 304
E 9 22 298
E 9 26 296
E 9 37 304
E 9 40 301
E 9 44 208
E 9 55 206
E 9 62 202
E 9 67 190
E 9 69 199
E 9 74 196
E 9 77 202
E 9 82 208
E 9 85 198
E 9 86 195
E 9 90 200
E 9 108 197
E 9 109 197
E 9 113 200
E 9 116 194
E 9 136 203
E 9 138 190
E 9 139 198
E 9 140 200
E 9 147 197
E 9 149 201
E 9 154 197
E 10 12 292
E 10 22 297
E 10 23 294
E 10 27 299
E 10 28 301
E 10 31 301
E 10 36 307
E 10 41 206
E 10 47 197
E 10 50 202
E 10 51 206
E 10 68 202
E 10 69 196
E 10 77 197
E 10 83 191
E 10 88 200
E 10 101 202
E 10 102 202
E 10 110 196
E 10 116 191
E 10 121 194
E 10 122 196
E 10 131 204
E 10 132 204
E 10 134 196
E 10 135 203
E 10 138 200
E 10 142 196
E 10 148 208
E 10 150 200
E 10 153 209
E 11 15 301
E 11 16 307
E 11 19 303
E 11 21 302
E 11 43 207
E 11 45 209
E 11 54 198
E 11 56 203
E 11 63 201
E 11 66 203
E 11 75 193
E 11 86 203
E 11 88 205
E 11 92 199
E 11 93 208
E 11 95 200
E 11 104 196
E 11 110 197
E 11 111 201
E 11 114 191
E 11 116 200
E 11 124 195
E 11 129 202
E 11 139 198
E 11 142 200
E 11 147 202
E 11 155 200
E 12 17 301
E 12 19 306
E 12 20 296
E 12 22 295
E 12 24 300
E 12 33 295
E 12 39 298
E 12 42 203
E 12 44 197
E 12 46 197
E 12 50 200
E 12 57 194
E 12 59 194
E 12 61 191
E 12 63 201
E 12 68 200
E 12 69 193
E 12 75 202
E 12 76 192
E 12 87 195
E 12 97 205
E 12 100 206
E 12 106 196
E 12 108 193
E 12 112 185
E 12 113 198
E 12 119 196
E 12 122 198
E 12 126 199
E 12 127 199
E 12 132 199
E 12 137 206
E 12 141 202
E 12 143 202
E 12 148 197
E 12 151 198
E 12 154 189
E 12 155 200
E 12 160 207
E 13 18 290
E 13 23 302
E 13 35 296
E 13 41 196
E 13 42 199
E 13 52 196
E 13 63 196
E 13 64 189
E 13 69 203
E 13 76 202
E 13 77 203
E 13 79 199
E 13 91 195
E 13 98 204
E 13 106 201
E 13 107 201
E 13 113 196
E 13 118 209
E 13 122 202
E 13 124 195
E 13 136 202
E 13 146 206
E 13 149 197
E 13 151 201
E 13 157 195
E 13 159 207
E 14 15 297
E 14 20 302
E 14 32 305
E 14 36 297
E 14 41 198
E 14 52 198
E 14 56 199
E 14 58 199
E 14 66 199
E 14 67 203
E 14 68 208
E 14 69 201
E 14 70 200
E 14 71 198
E 14 72 200
E 14 86 208
E 14 95 196
E 14 98 195
E 14 111 206
E 14 117 196
E 14 118 195
E 14 123 200
E 14 132 200
E 14 136 194
E 14 138 194
E 14 143 202
E 14 146 210
E 14 147 202
E 14 148 189
E 14 151 206
E 15 16 297
E 15 32 302
E 15 36 297
E 15 38 302
E 15 40 297
E 15 42 197
E 15 58 191
E 15 67 201
E 15 74 194
E 15 77 195
E 15 83 198
E 15 88 214
E 15 93 200
E 15 101 207
E 15 107 198
E 15 109 200
E 15 116 194
E 15 125 193
E 15 131 196
E 15 132 204
E 15 134 204
E 15 143 197
E 15 144 208
E 15 146 193
E 15 154 204
E 15 155 196
E 15 159 206
E 16 26 299
E 16 35 301
E 16 39 305
E 16 41 193
E 16 48 200
E 16 50 208
E 16 54 201
E 16 58 203
E 16 62 197
E 16 64 207
E 16 65 206
E 16 67 202
E 16 68 196
E 16 70 201
E 16 71 201
E 16 77 204
E 16 78 213
E 16 91 197
E 16 95 195
E 16 99 204
E 16 101 202
E 16 105 198
E 16 107 207
E 16 112 198
E 16 113 201
E 16 114 197
E 16 116 198
E 16 120 202
E 16 122 205
E 16 124 198
E 16 140 190
E 16 141 195
E 16 143 191
E 16 149 200
E 16 153 200
E 17 19 292
E 17 21 310
E 17 33 298
E 17 39 295
E 17 41 208
E 17 43 203
E 17 50 201
E 17 58 202
E 17 59 200
E 17 61 204
E 17 68 200
E 17 73 191
E 17 74 193
E 17 75 207
E 17 77 200
E 17 82 200
E 17 87 203
E 17 89 201
E 17 91 195
E 17 95 197
E 17 99 212
E 17 103 194
E 17 109 198
E 17 114 204
E 17 117 194
E 17 120 202
E 17 133 199
E 17 136 203
E 17 140 201
E 17 142 208
E 17 149 201
E 17 150 195
E 18 20 299
E 18 31 295
E 18 34 293
E 18 35 305
E 18 36 303
E 18 38 297
E 18 41 204
E 18 45 187
E 18 47 202
E 18 54 199
E 18 62 196
E 18 65 201
E 18 67 201
E 18 68 201
E 18 70 201
E 18 72 198
E 18 78 200
E 18 82 199
E 18 87 202
E 18 88 197
E 18 100 192
E 18 104 200
E 18 108 201
E 18 110 193
E 18 131 197
E 18 136 199
E 18 139 199
E 18 141 195
E 18 157 195
E 18 159 202
E 19 23 299
E 19 27 295
E 19 39 303
E 19 49 197
E 19 55 202
E 19 58 196
E 19 60 187
E 19 62 211
E 19 69 200
E 19 78 200
E 19 79 201
E 19 82 196
E 19 83 212
E 19 86 194
E 19 89 192
E 19 91 190
E 19 104 192
E 19 107 201
E 19 115 201
E 19 117 197
E 19 123 198
E 19 129 207
E 19 131 202
E 19 135 210
E 19 137 198
E 19 141 191
E 19 142 196
E 19 145 211
E 19 148 198
E 19 149 208
E 19 152 205
E 19 155 201
E 20 21 298
E 20 22 298
E 20 26 304
E 20 27 292
E 20 34 294
E 20 49 192
E 20 51 200
E 20 54 203
E 20 59 198
E 20 61 194
E 20 69 205
E 20 74 199
E 20 78 197
E 20 81 197
E 20 84 196
E 20 85 203
E 20 86 195
E 20 87 209
E 20 88 202
E 20 89 197
E 20 95 193
E 20 104 192
E 20 105 203
E 20 107 205
E 20 117 199
E 20 118 202
E 20 122 201
E 20 124 197
E 20 127 206
E 20 133 195
E 20 134 201
E 20 141 193
E 20 143 203
E 20 144 213
E 20 146 195
E 20 152 200
E 20 153 195
E 20 159 195
E 21 24 299
E 21 28 296
E 21 36 296
E 21 38 295
E 21 48 204
E 21 54 191
E 21 63 193
E 21 65 195
E 21 67 207
E 21 74 208
E 21 78 209
E 21 81 204
E 21 82 196
E 21 87 199
E 21 93 206
E 21 94 196
E 21 109 200
E 21 121 197
E 21 123 201
E 21 127 202
E 21 128 199
E 21 134 192
E 21 141 198
E 21 143 206
E 21 155 204
E 22 23 303
E 22 38 300
E 22 44 202
E 22 48 198
E 22 49 198
E 22 63 197
E 22 64 196
E 22 65 202
E 22 69 198
E 22 72 194
E 22 74 205
E 22 76 190
E 22 91 196
E 22 92 195
E 22 102 200
E 22 103 195
E 22 113 202
E 22 114 195
E 22 124 199
E 22 141 205
E 22 142 206
E 22 144 194
E 22 157 202
E 23 26 301
E 23 35 293
E 23 41 196
E 23 44 204
E 23 53 202
E 23 55 195
E 23 60 199
E 23 64 198
E 23 72 201
E 23 77 197
E 23 82 194
E 23 87 202
E 23 90 196
E 23 93 192
E 23 94 204
E 23 95 198
E 23 96 197
E 23 97 195
E 23 100 196
E 23 105 199
E 23 122 199
E 23 123 196
E 23 129 207
E 23 141 200
E 23 147 194
E 23 154 190
E 23 156 195
E 23 159 204
E 24 30 304
E 24 48 192
E 24 49 188
E 24 60 204
E 24 61 195
E 24 63 198
E 24 77 185
E 24 79 204
E 24 82 195
E 24 85 198
E 24 88 201
E 24 97 195
E 24 99 214
E 24 113 203
E 24 128 202
E 24 134 195
E 24 141 194
E 24 152 199
E 24 153 199
E 24 157 197
E 25 28 304
E 25 33 296
E 25 38 298
E 25 48 203
E 25 49 206
E 25 61 202
E 25 65 199
E 25 68 196
E 25 76 201
E 25 79 202
E 25 95 202
E 25 100 193
E 25 106 199
E 25 110 207
E 25 114 203
E 25 121 201
E 25 133 199
E 25 136 194
E 25 137 200
E 25 141 201
E 25 146 198
E 25 148 196
E 25 153 203
E 26 28 300
E 26 34 298
E 26 56 202
E 26 57 195
E 26 61 202
E 26 62 195
E 26 67 205
E 26 85 198
E 26 86 208
E 26 89 199
E 26 92 201
E 26 100 196
E 26 102 199
E 26 105 209
E 26 114 196
E 26 118 198
E 26 121 201
E 26 122 201
E 26 130 201
E 26 131 192
E 26 135 198
E 26 139 194
E 26 153 204
E 26 154 199
E 26 158 201
E 27 32 299
E 27 45 210
E 27 47 196
E 27 54 207
E 27 61 195
E 27 73 197
E 27 76 200
E 27 82 199
E 27 86 204
E 27 93 206
E 27 95 203
E 27 96 198
E 27 97 197
E 27 103 198
E 27 106 186
E 27 107 203
E 27 110 206
E 27 119 192
E 27 120 202
E 27 138 200
E 27 139 199
E 27 150 200
E 27 151 201
E 27 155 197
E 27 157 200
E 28 31 306
E 28 39 298
E 28 44 198
E 28 58 206
E 28 64 198
E 28 68 196
E 28 71 202
E 28 72 198
E 28 77 205
E 28 82 194
E 28 84 203
E 28 87 197
E 28 93 206
E 28 95 195
E 28 102 201
E 28 105 188
E 28 124 203
E 28 133 203
E 28 152 196
E 28 156 201
E 28 157 201
E 28 158 211
E 29 35 306
E 29 57 193
E 29 61 201
E 29 65 199
E 29 69 201
E 29 75 200
E 29 76 203
E 29 82 206
E 29 86 194
E 29 91 207
E 29 93 197
E 29 95 194
E 29 97 202
E 29 98 201
E 29 99 201
E 29 101 199
E 29 102 205
E 29 108 201
E 29 111 204
E 29 113 200
E 29 115 198
E 29 123 192
E 29 130 201
E 29 131 211
E 29 143 194
E 29 144 203
E 29 148 201
E 29 150 199
E 29 152 197
E 29 153 194
E 29 156 195
E 30 32 301
E 30 35 300
E 30 40 300
E 30 45 200
E 30 47 206
E 30 54 189
E 30 57 205
E 30 66 204
E 30 68 194
E 30 72 197
E 30 73 199
E 30 74 206
E 30 76 205
E 30 80 199
E 30 85 198
E 30 91 187
E 30 98 211
E 30 100 203
E 30 116 209
E 30 118 202
E 30 120 203
E 30 122 199
E 30 124 201
E 30 127 200
E 30 134 200
E 30 141 193
E 30 143 201
E 30 147 207
E 30 157 198
E 31 41 198
E 31 42 208
E 31 49 196
E 31 51 201
E 31 56 191
E 31 63 197
E 31 69 200
E 31 73 195
E 31 74 196
E 31 75 206
E 31 80 206
E 31 90 205
E 31 102 203
E 31 104 205
E 31 117 188
E 31 119 197
E 31 120 199
E 31 124 201
E 31 126 198
E 31 138 200
E 31 139 199
E 31 140 200
E 31 142 190
E 31 146 209
E 31 147 195
E 31 149 202
E 31 151 210
E 31 152 205
E 31 153 195
E 32 42 204
E 32 43 193
E 32 44 200
E 32 45 205
E 32 46 200
E 32 49 197
E 32 52 196
E 32 64 208
E 32 66 199
E 32 67 192
E 32 73 192
E 32 80 198
E 32 90 193
E 32 93 209
E 32 96 203
E 32 99 194
E 32 100 199
E 32 102 199
E 32 109 197
E 32 118 202
E 32 129 195
E 32 137 192
E 32 138 198
E 32 145 199
E 32 146 201
E 32 149 196
E 32 155 194
E 32 157 200
E 33 35 295
E 33 39 311
E 33 50 200
E 33 52 205
E 33 56 200
E 33 57 203
E 33 59 191
E 33 61 201
E 33 62 206
E 33 66 203
E 33 73 203
E 33 74 196
E 33 78 201
E 33 79 202
E 33 80 205
E 33 83 197
E 33 85 200
E 33 87 198
E 33 94 200
E 33 95 198
E 33 98 201
E 33 100 198
E 33 105 197
E 33 107 197
E 33 114 196
E 33 115 204
E 33 121 213
E 33 134 200
E 33 135 203
E 33 138 201
E 33 151 199
E 33 154 192
E 33 156 202
E 34 35 303
E 34 36 302
E 34 37 299
E 34 46 205
E 34 51 195
E 34 57 198
E 34 62 201
E 34 71 202
E 34 77 201
E 34 80 198
E 34 82 203
E 34 93 196
E 34 97 200
E 34 98 198
E 34 99 198
E 34 100 198
E 34 103 213
E 34 104 206
E 34 110 202
E 34 112 198
E 34 114 195
E 34 131 211
E 34 137 202
E 34 138 201
E 34 145 194
E 34 148 198
E 34 153 202
E 35 38 298
E 35 41 198
E 35 42 192
E 35 49 198
E 35 50 191
E 35 53 190
E 35 64 204
E 35 65 194
E 35 71 196
E 35 74 201
E 35 76 199
E 35 80 200
E 35 83 203
E 35 84 198
E 35 94 205
E 35 100 191
E 35 108 197
E 35 109 190
E 35 113 197
E 35 120 202
E 35 123 208
E 35 126 196
E 35 147 211
E 35 160 197
E 36 44 198
E 36 59 203
E 36 62 193
E 36 67 207
E 36 74 203
E 36 77 209
E 36 78 192
E 36 81 204
E 36 82 205
E 36 86 200
E 36 94 200
E 36 100 203
E 36 102 197
E 36 106 196
E 36 110 205
E 36 115 203
E 36 131 193
E 36 135 211
E 36 137 207
E 36 141 206
E 36 143 206
E 36 145 210
E 36 152 203
E 36 156 199
E 36 157 198
E 37 38 290
E 37 46 190
E 37 49 207
E 37 54 200
E 37 57 203
E 37 61 207
E 37 62 205
E 37 64 199
E 37 67 194
E 37 83 192
E 37 85 205
E 37 89 199
E 37 91 204
E 37 92 206
E 37 93 204
E 37 110 198
E 37 113 194
E 37 119 206
E 37 120 197
E 37 130 200
E 37 137 195
E 37 139 197
E 37 142 202
E 37 146 200
E 37 160 207
E 38 39 303
E 38 41 197
E 38 44 195
E 38 49 200
E 38 50 211
E 38 53 207
E 38 58 194
E 38 67 195
E 38 68 198
E 38 75 200
E 38 76 195
E 38 80 197
E 38 81 212
E 38 83 200
E 38 88 205
E 38 92 205
E 38 98 196
E 38 101 213
E 38 112 191
E 38 126 196
E 38 127 199
E 38 136 199
E 38 137 199
E 38 138 202
E 38 139 206
E 38 145 195
E 38 158 200
E 39 40 292
E 39 47 207
E 39 48 206
E 39 49 204
E 39 64 202
E 39 73 198
E 39 78 203
E 39 82 209
E 39 91 199
E 39 98 195
E 39 100 198
E 39 105 201
E 39 108 204
E 39 113 205
E 39 114 189
E 39 116 200
E 39 118 199
E 39 121 207
E 39 122 188
E 39 130 199
E 39 131 200
E 39 133 201
E 39 138 197
E 39 139 204
E 39 145 200
E 39 157 200
E 40 41 199
E 40 42 196
E 40 48 201
E 40 49 205
E 40 50 206
E 40 52 200
E 40 59 207
E 40 61 203
E 40 63 196
E 40 64 207
E 40 67 196
E 40 71 198
E 40 75 197
E 40 85 203
E 40 97 203
E 40 98 199
E 40 104 199
E 40 114 199
E 40 117 192
E 40 139 198
E 40 145 205
E 40 147 192
E 40 153 203
E 40 159 211
E 40 160 206
E 41 46 103
E 41 47 94
E 41 49 96
E 41 51 99
E 41 55 100
E 41 56 101
E 41 58 94
E 41 65 97
E 41 68 97
E 41 74 110
E 41 75 112
E 41 77 102
E 41 78 101
E 41 79 98
E 41 83 105
E 41 90 97
E 41 92 101
E 41 96 101
E 41 101 109
E 41 104 85
E 41 111 99
E 41 113 93
E 41 114 111
E 41 116 103
E 41 126 110
E 41 134 98
E 41 137 97
E 41 139 104
E 41 141 115
E 41 144 100
E 41 147 96
E 41 155 102
E 41 158 101
E 41 159 98
E 42 49 105
E 42 59 92
E 42 61 96
E 42 63 97
E 42 67 96
E 42 71 99
E 42 75 101
E 42 77 105
E 42 80 101
E 42 83 103
E 42 85 99
E 42 87 98
E 42 91 99
E 42 93 94
E 42 105 101
E 42 119 103
E 42 122 95
E 42 133 100
E 42 135 91
E 42 147 96
E 42 148 108
E 42 152 100
E 42 156 101
E 42 157 101
E 42 159 97
E 43 46 99
E 43 48 107
E 43 51 96
E 43 53 93
E 43 56 95
E 43 57 100
E 43 59 97
E 43 64 103
E 43 65 96
E 43 67 102
E 43 85 103
E 43 86 99
E 43 102 89
E 43 103 104
E 43 109 103
E 43 111 108
E 43 122 92
E 43 124 103
E 43 126 94
E 43 134 101
E 43 138 99
E 43 141 92
E 43 146 96
E 43 150 99
E 43 153 100
E 43 156 102
E 43 157 110
E 44 46 97
E 44 52 102
E 44 54 97
E 44 56 98
E 44 60 93
E 44 74 106
E 44 85 100
E 44 87 102
E 44 92 98
E 44 101 99
E 44 108 96
E 44 113 106
E 44 115 95
E 44 116 94
E 44 117 105
E 44 118 105
E 44 126 105
E 44 129 102
E 44 130 110
E 44 131 99
E 44 132 98
E 44 144 107
E 44 149 93
E 44 158 99
E 45 58 97
E 45 60 107
E 45 68 105
E 45 71 94
E 45 78 101
E 45 82 95
E 45 90 97
E 45 91 102
E 45 99 100
E 45 101 102
E 45 121 95
E 45 130 103
E 45 132 97
E 45 135 94
E 45 139 90
E 45 143 101
E 45 146 103
E 45 150 104
E 45 152 96
E 45 160 89
E 46 49 102
E 46 58 107
E 46 61 102
E 46 63 89
E 46 64 106
E 46 70 106
E 46 87 93
E 46 90 104
E 46 91 96
E 46 96 110
E 46 100 98
E 46 108 105
E 46 110 88
E 46 112 103
E 46 113 95
E 46 115 99
E 46 120 99
E 46 121 99
E 46 127 94
E 46 146 101
E 46 151 96
E 46 152 102
E 46 159 106
E 47 57 104
E 47 59 102
E 47 63 102
E 47 70 98
E 47 75 102
E 47 78 104
E 47 81 96
E 47 91 102
E 47 97 96
E 47 100 105
E 47 131 103
E 47 136 103
E 47 143 87
E 47 145 90
E 47 148 97
E 47 150 102
E 47 155 88
E 47 156 109
E 48 54 98
E 48 58 105
E 48 63 108
E 48 65 85
E 48 85 101
E 48 86 100
E 48 87 103
E 48 92 102
E 48 96 95
E 48 97 93
E 48 100 93
E 48 108 97
E 48 114 106
E 48 116 97
E 48 125 97
E 48 126 100
E 48 149 99
E 48 151 99
E 48 159 100
E 48 160 96
E 49 50 89
E 49 51 100
E 49 54 94
E 49 58 95
E 49 61 102
E 49 63 103
E 49 72 112
E 49 74 97
E 49 78 92
E 49 81 101
E 49 87 88
E 49 99 102
E 49 101 108
E 49 108 89
E 49 119 98
E 49 122 105
E 49 131 99
E 49 136 103
E 49 148 107
E 49 149 103
E 49 152 101
E 49 157 112
E 50 55 95
E 50 59 94
E 50 67 92
E 50 69 97
E 50 74 90
E 50 82 108
E 50 95 97
E 50 100 90
E 50 112 99
E 50 113 101
E 50 116 109
E 50 120 101
E 50 125 97
E 50 128 97
E 50 138 108
E 50 139 89
E 50 141 103
E 50 145 100
E 50 148 105
E 50 151 103
E 51 61 108
E 51 66 98
E 51 77 104
E 51 78 99
E 51 86 99
E 51 88 98
E 51 90 97
E 51 96 90
E 51 97 92
E 51 101 97
E 51 110 97
E 51 126 101
E 51 127 93
E 51 128 94
E 51 131 114
E 51 134 110
E 51 138 91
E 51 142 103
E 51 157 108
E 51 160 100
E 52 58 101
E 52 68 98
E 52 69 94
E 52 74 106
E 52 76 100
E 52 81 102
E 52 90 99
E 52 102 108
E 52 118 97
E 52 120 108
E 52 125 115
E 52 129 102
E 52 131 102
E 52 137 96
E 52 143 108
E 52 149 102
E 52 154 107
E 52 159 100
E 52 160 102
E 53 57 97
E 53 60 98
E 53 65 93
E 53 66 107
E 53 81 104
E 53 90 104
E 53 92 105
E 53 97 95
E 53 108 113
E 53 109 102
E 53 117 98
E 53 124 95
E 53 133 95
E 53 138 98
E 53 150 91
E 53 153 99
E 53 155 102
E 53 158 102
E 54 56 110
E 54 63 100
E 54 65 98
E 54 77 97
E 54 85 92
E 54 91 101
E 54 92 99
E 54 93 95
E 54 94 99
E 54 99 100
E 54 100 96
E 54 107 98
E 54 115 103
E 54 121 103
E 54 122 96
E 54 125 92
E 54 132 101
E 54 146 99
E 55 60 98
E 55 64 87
E 55 84 101
E 55 93 101
E 55 95 92
E 55 108 96
E 55 117 94
E 55 123 97
E 55 124 92
E 55 134 96
E 55 137 94
E 55 142 103
E 55 149 93
E 55 152 100
E 55 160 97
E 56 65 97
E 56 66 99
E 56 76 101
E 56 78 90
E 56 82 98
E 56 83 103
E 56 84 98
E 56 87 92
E 56 95 91
E 56 98 104
E 56 103 96
E 56 110 100
E 56 111 101
E 56 116 105
E 56 119 102
E 56 120 105
E 56 124 105
E 56 125 96
E 56 130 99
E 56 137 103
E 56 144 100
E 56 150 107
E 56 157 103
E 57 58 101
E 57 65 100
E 57 69 105
E 57 81 97
E 57 107 98
E 57 129 96
E 57 131 98
E 57 134 103
E 57 137 98
E 57 138 104
E 57 139 97
E 57 144 99
E 57 148 100
E 57 155 103
E 57 156 96
E 57 157 99
E 58 64 91
E 58 66 102
E 58 69 104
E 58 70 105
E 58 84 99
E 58 88 104
E 58 94 102
E 58 95 97
E 58 109 105
E 58 114 98
E 58 118 98
E 58 125 108
E 58 126 92
E 58 131 100
E 58 143 111
E 58 147 99
E 58 149 99
E 59 60 96
E 59 66 99
E 59 68 95
E 59 71 106
E 59 73 101
E 59 77 102
E 59 79 96
E 59 81 102
E 59 88 101
E 59 89 102
E 59 92 107
E 59 95 99
E 59 99 101
E 59 106 97
E 59 112 99
E 59 116 102
E 59 118 108
E 59 119 100
E 59 126 85
E 59 135 99
E 59 138 98
E 59 139 87
E 59 148 104
E 59 156 98
E 59 157 100
E 60 61 97
E 60 62 98
E 60 64 97
E 60 70 106
E 60 74 99
E 60 88 93
E 60 97 95
E 60 106 102
E 60 113 96
E 60 126 95
E 60 136 106
E 60 138 94
E 60 140 98
E 60 153 95
E 60 154 100
E 60 158 102
E 61 62 101
E 61 63 103
E 61 64 100
E 61 77 97
E 61 79 106
E 61 84 95
E 61 90 94
E 61 91 84
E 61 97 96
E 61 103 102
E 61 117 100
E 61 126 101
E 61 134 98
E 61 135 101
E 61 139 101
E 61 142 96
E 61 150 101
E 61 154 107
E 61 159 100
E 62 65 99
E 62 68 96
E 62 69 95
E 62 73 110
E 62 74 104
E 62 75 104
E 62 77 108
E 62 82 98
E 62 89 101
E 62 93 101
E 62 94 90
E 62 96 94
E 62 120 102
E 62 121 103
E 62 129 101
E 62 132 97
E 62 136 97
E 62 152 102
E 62 156 97
E 62 159 104
E 63 73 99
E 63 77 99
E 63 80 99
E 63 82 99
E 63 84 93
E 63 89 104
E 63 90 98
E 63 104 104
E 63 106 100
E 63 109 90
E 63 118 101
E 63 131 100
E 63 133 96
E 63 134 103
E 63 143 96
E 63 159 106
E 64 66 110
E 64 78 98
E 64 79 103
E 64 83 92
E 64 90 91
E 64 93 97
E 64 105 94
E 64 109 97
E 64 113 102
E 64 116 91
E 64 117 99
E 64 119 104
E 64 122 100
E 64 129 97
E 64 139 109
E 64 141 100
E 64 144 104
E 64 148 95
E 65 70 92
E 65 81 105
E 65 90 99
E 65 92 93
E 65 97 108
E 65 100 99
E 65 104 110
E 65 105 101
E 65 111 92
E 65 112 92
E 65 116 110
E 65 120 111
E 65 121 109
E 65 122 90
E 65 129 92
E 65 139 102
E 65 142 109
E 65 146 93
E 65 149 100
E 65 153 104
E 65 154 103
E 65 155 110
E 66 69 101
E 66 75 103
E 66 86 87
E 66 93 104
E 66 94 101
E 66 96 105
E 66 107 109
E 66 108 102
E 66 115 99
E 66 123 100
E 66 136 106
E 66 137 102
E 66 153 103
E 67 82 109
E 67 97 100
E 67 99 97
E 67 102 100
E 67 105 100
E 67 109 94
E 67 110 105
E 67 122 92
E 67 134 91
E 67 135 103
E 67 136 88
E 67 139 98
E 67 153 107
E 67 155 99
E 68 70 93
E 68 79 97
E 68 80 101
E 68 83 96
E 68 90 99
E 68 94 95
E 68 95 98
E 68 104 102
E 68 108 101
E 68 111 97
E 68 116 99
E 68 120 103
E 68 121 100
E 68 132 101
E 68 153 93
E 68 156 104
E 68 159 105
E 69 82 98
E 69 88 92
E 69 91 103
E 69 98 99
E 69 104 102
E 69 107 98
E 69 124 89
E 69 127 101
E 69 136 93
E 69 140 90
E 69 142 98
E 69 144 100
E 69 147 102
E 69 152 105
E 69 153 100
E 69 157 102
E 69 160 96
E 70 71 104
E 70 75 99
E 70 77 97
E 70 80 97
E 70 84 106
E 70 90 99
E 70 91 109
E 70 102 106
E 70 105 98
E 70 110 101
E 70 129 90
E 70 139 101
E 70 146 105
E 70 158 96
E 70 160 97
E 71 74 104
E 71 81 103
E 71 86 101
E 71 90 98
E 71 99 102
E 71 113 100
E 71 122 95
E 71 124 107
E 71 127 103
E 71 136 101
E 71 151 97
E 71 158 97
E 72 77 101
E 72 81 89
E 72 82 101
E 72 83 91
E 72 91 94
E 72 95 94
E 72 97 102
E 72 104 103
E 72 114 106
E 72 116 97
E 72 119 95
E 72 120 104
E 72 122 103
E 72 130 103
E 72 134 104
E 72 135 102
E 72 139 98
E 72 148 98
E 72 156 104
E 73 87 106
E 73 90 94
E 73 97 94
E 73 98 99
E 73 102 105
E 73 118 95
E 73 124 97
E 73 125 87
E 73 127 86
E 73 129 100
E 73 131 98
E 73 138 98
E 73 139 90
E 73 142 103
E 73 143 107
E 73 151 106
E 74 76 102
E 74 95 97
E 74 98 103
E 74 105 103
E 74 108 99
E 74 112 106
E 74 126 99
E 74 138 101
E 74 139 92
E 74 144 98
E 74 150 101
E 74 152 97
E 74 153 92
E 74 154 105
E 74 158 101
E 74 159 105
E 75 81 99
E 75 88 100
E 75 95 99
E 75 96 95
E 75 107 98
E 75 111 96
E 75 116 105
E 75 120 101
E 75 121 103
E 75 125 103
E 75 133 90
E 75 136 105
E 75 141 96
E 75 142 102
E 75 144 98
E 75 160 117
E 76 77 104
E 76 80 104
E 76 81 90
E 76 89 103
E 76 95 98
E 76 98 100
E 76 100 103
E 76 102 95
E 76 106 99
E 76 110 97
E 76 112 101
E 76 115 96
E 76 117 101
E 76 129 100
E 76 134 106
E 76 137 98
E 76 139 92
E 76 140 103
E 76 142 101
E 76 149 96
E 76 157 103
E 76 159 97
E 77 81 99
E 77 85 96
E 77 95 94
E 77 103 107
E 77 109 92
E 77 110 105
E 77 111 101
E 77 114 109
E 77 122 96
E 77 140 104
E 77 141 106
E 77 145 94
E 77 150 105
E 78 81 101
E 78 82 99
E 78 84 103
E 78 85 90
E 78 91 104
E 78 93 105
E 78 94 97
E 78 95 95
E 78 101 96
E 78 108 105
E 78 113 99
E 78 121 101
E 78 122 96
E 78 124 106
E 78 127 108
E 78 149 100
E 78 151 102
E 78 152 101
E 78 154 92
E 79 85 104
E 79 89 99
E 79 95 91
E 79 98 102
E 79 106 101
E 79 109 91
E 79 111 93
E 79 113 102
E 79 114 107
E 79 118 96
E 79 121 103
E 79 123 106
E 79 129 100
E 79 131 99
E 79 138 97
E 79 141 93
E 79 142 101
E 79 145 92
E 79 155 99
E 79 156 100
E 79 159 96
E 80 87 104
E 80 90 102
E 80 96 97
E 80 100 95
E 80 105 99
E 80 107 101
E 80 109 100
E 80 110 94
E 80 120 94
E 80 129 101
E 80 132 102
E 80 137 97
E 80 140 103
E 80 144 93
E 80 145 105
E 80 146 97
E 80 147 87
E 80 151 101
E 80 155 101
E 80 158 100
E 80 159 98
E 81 85 100
E 81 97 104
E 81 104 95
E 81 106 97
E 81 112 105
E 81 119 88
E 81 126 98
E 81 130 97
E 81 134 99
E 81 139 103
E 81 143 94
E 81 153 110
E 81 155 107
E 81 160 97
E 82 86 91
E 82 94 101
E 82 106 100
E 82 108 102
E 82 115 105
E 82 119 97
E 82 125 99
E 82 127 98
E 82 131 100
E 82 132 93
E 82 136 103
E 82 146 92
E 82 152 97
E 83 114 103
E 83 118 95
E 83 120 104
E 83 126 99
E 83 134 101
E 83 136 102
E 83 138 89
E 84 86 104
E 84 88 102
E 84 90 99
E 84 93 93
E 84 97 94
E 84 107 105
E 84 108 103
E 84 117 95
E 84 124 89
E 84 128 101
E 84 130 101
E 84 142 99
E 84 143 102
E 84 146 107
E 84 149 89
E 84 153 107
E 85 87 105
E 85 89 98
E 85 91 97
E 85 92 94
E 85 96 90
E 85 97 107
E 85 99 96
E 85 106 99
E 85 117 99
E 85 135 101
E 85 136 94
E 85 138 104
E 85 144 103
E 85 145 104
E 85 153 102
E 85 156 111
E 85 157 102
E 86 90 101
E 86 91 105
E 86 95 97
E 86 96 99
E 86 98 106
E 86 99 107
E 86 108 101
E 86 112 104
E 86 113 111
E 86 125 92
E 86 129 103
E 86 131 97
E 86 139 101
E 86 140 102
E 86 149 106
E 86 150 101
E 86 154 96
E 86 160 96
E 87 89 97
E 87 94 95
E 87 100 91
E 87 102 90
E 87 108 98
E 87 114 100
E 87 116 103
E 87 117 98
E 87 120 92
E 87 127 98
E 87 128 99
E 87 129 95
E 87 131 101
E 87 134 96
E 87 140 102
E 87 141 99
E 87 142 97
E 87 145 101
E 88 97 97
E 88 99 111
E 88 111 103
E 88 113 109
E 88 114 104
E 88 118 98
E 88 127 105
E 88 131 97
E 88 137 97
E 88 139 99
E 88 148 104
E 88 154 107
E 89 90 106
E 89 91 110
E 89 93 93
E 89 95 101
E 89 100 97
E 89 108 94
E 89 109 99
E 89 117 105
E 89 119 99
E 89 120 100
E 89 126 99
E 89 127 97
E 89 128 102
E 89 129 82
E 89 134 95
E 89 138 95
E 89 143 101
E 89 148 101
E 89 149 94
E 89 151 97
E 89 155 91
E 89 157 105
E 89 159 103
E 90 93 103
E 90 95 98
E 90 96 96
E 90 102 100
E 90 105 94
E 90 107 104
E 90 119 102
E 90 129 102
E 90 138 98
E 90 140 105
E 90 150 101
E 90 151 101
E 90 154 103
E 90 159 90
E 91 93 97
E 91 94 113
E 91 96 106
E 91 101 106
E 91 106 96
E 91 110 98
E 91 120 106
E 91 123 100
E 91 127 102
E 91 128 103
E 91 130 102
E 91 145 103
E 91 153 98
E 91 154 100
E 91 157 101
E 92 100 100
E 92 104 102
E 92 111 108
E 92 113 89
E 92 117 94
E 92 125 98
E 92 127 99
E 92 134 103
E 92 136 100
E 92 137 101
E 92 141 96
E 92 151 106
E 92 152 101
E 92 154 101
E 92 155 99
E 93 100 106
E 93 109 104
E 93 112 106
E 93 113 95
E 93 114 90
E 93 120 102
E 93 123 98
E 93 128 111
E 93 137 98
E 93 140 108
E 93 141 100
E 93 145 95
E 93 151 106
E 93 152 96
E 93 153 109
E 93 160 90
E 94 102 102
E 94 108 96
E 94 110 108
E 94 116 99
E 94 125 103
E 94 137 97
E 94 138 95
E 94 139 96
E 94 143 101
E 94 147 90
E 94 151 95
E 95 96 104
E 95 103 89
E 95 107 95
E 95 108 92
E 95 111 108
E 95 121 100
E 95 124 93
E 95 127 95
E 95 130 97
E 95 133 104
E 95 138 99
E 95 139 98
E 95 141 96
E 95 144 100
E 95 146 99
E 95 147 106
E 96 97 96
E 96 102 102
E 96 119 102
E 96 120 95
E 96 126 100
E 96 133 100
E 96 134 94
E 96 143 98
E 96 151 97
E 96 153 105
E 96 154 105
E 96 158 96
E 97 102 102
E 97 115 100
E 97 129 97
E 97 131 94
E 97 138 95
E 97 140 101
E 97 143 96
E 98 102 98
E 98 103 89
E 98 111 94
E 98 117 104
E 98 122 104
E 98 123 102
E 98 135 101
E 98 136 101
E 98 141 94
E 98 142 109
E 98 148 95
E 98 158 96
E 98 159 104
E 99 101 94
E 99 102 96
E 99 103 97
E 99 107 98
E 99 111 102
E 99 115 99
E 99 127 95
E 99 129 105
E 99 131 104
E 99 132 95
E 99 138 95
E 99 146 101
E 99 147 100
E 99 148 102
E 99 150 93
E 100 104 91
E 100 107 107
E 100 123 90
E 100 142 94
E 101 120 90
E 101 121 93
E 101 122 97
E 101 129 96
E 101 130 100
E 101 133 106
E 101 134 99
E 101 135 95
E 101 137 98
E 101 138 99
E 101 156 99
E 101 159 98
E 102 110 102
E 102 123 105
E 102 131 99
E 102 134 99
E 102 139 109
E 102 148 100
E 102 157 97
E 102 158 103
E 102 159 92
E 103 118 92
E 103 125 99
E 103 127 95
E 103 129 116
E 103 132 104
E 103 133 102
E 103 140 110
E 103 142 111
E 103 150 100
E 104 105 98
E 104 109 92
E 104 116 103
E 104 123 99
E 104 124 97
E 104 137 100
E 104 138 92
E 104 142 98
E 104 144 92
E 104 151 108
E 105 110 104
E 105 118 97
E 105 133 106
E 105 136 94
E 105 137 102
E 105 139 93
E 105 141 95
E 106 119 103
E 106 121 101
E 106 122 94
E 106 124 92
E 106 125 106
E 106 129 100
E 106 137 100
E 106 142 102
E 106 143 97
E 106 148 96
E 106 149 88
E 106 153 101
E 106 154 100
E 107 108 98
E 107 113 99
E 107 115 99
E 107 116 106
E 107 117 101
E 107 123 88
E 107 125 102
E 107 130 101
E 107 139 102
E 107 141 106
E 107 144 93
E 107 148 103
E 107 152 105
E 107 153 106
E 107 156 101
E 108 110 97
E 108 118 106
E 108 119 90
E 108 128 92
E 108 132 105
E 108 150 99
E 108 153 102
E 108 154 101
E 109 110 96
E 109 111 100
E 109 117 97
E 109 125 99
E 109 133 102
E 109 137 108
E 109 146 101
E 109 147 93
E 109 150 104
E 109 159 108
E 110 112 97
E 110 114 97
E 110 119 99
E 110 135 102
E 110 137 97
E 110 140 98
E 110 145 98
E 110 146 95
E 110 147 99
E 110 152 105
E 111 112 108
E 111 113 116
E 111 118 108
E 111 120 96
E 111 128 98
E 111 139 92
E 111 142 101
E 111 147 98
E 111 149 101
E 111 152 95
E 111 154 96
E 111 156 107
E 111 159 93
E 112 113 97
E 112 114 100
E 112 118 110
E 112 127 95
E 112 130 105
E 112 136 97
E 112 143 91
E 112 144 102
E 112 149 105
E 112 150 113
E 112 157 97
E 112 158 97
E 113 116 105
E 113 118 88
E 113 123 110
E 113 131 96
E 113 134 111
E 113 137 102
E 113 157 98
E 114 119 106
E 114 120 99
E 114 121 98
E 114 122 99
E 114 125 98
E 114 127 96
E 114 140 100
E 114 151 104
E 114 159 107
E 115 118 103
E 115 120 100
E 115 125 95
E 115 137 102
E 115 139 97
E 115 140 94
E 115 144 102
E 115 148 95
E 115 151 104
E 115 152 93
E 115 154 104
E 115 156 95
E 116 117 106
E 116 119 102
E 116 129 96
E 116 132 100
E 116 139 96
E 116 142 97
E 116 148 102
E 116 155 93
E 116 158 96
E 116 159 104
E 117 118 108
E 117 123 107
E 117 130 106
E 117 133 99
E 117 146 96
E 117 149 106
E 117 160 103
E 118 121 108
E 118 123 97
E 118 125 93
E 118 133 96
E 118 137 105
E 118 139 111
E 118 142 108
E 118 151 101
E 118 153 105
E 118 154 103
E 118 156 92
E 119 120 105
E 119 126 97
E 119 127 101
E 119 130 101
E 119 138 104
E 119 139 97
E 119 140 102
E 119 141 101
E 119 147 89
E 119 153 97
E 119 154 100
E 119 158 90
E 120 123 102
E 120 127 100
E 120 128 98
E 120 130 98
E 120 136 101
E 120 143 103
E 120 148 99
E 120 150 93
E 120 154 98
E 120 155 107
E 120 157 104
E 120 159 97
E 121 122 108
E 121 124 105
E 121 127 110
E 121 128 98
E 121 133 92
E 121 134 96
E 121 141 96
E 121 144 100
E 121 145 95
E 121 149 97
E 122 124 94
E 122 128 102
E 122 135 96
E 122 143 100
E 122 147 98
E 122 148 106
E 122 150 95
E 122 153 101
E 122 154 96
E 123 144 101
E 123 145 99
E 123 146 106
E 123 151 98
E 123 152 97
E 123 155 93
E 123 156 93
E 124 126 94
E 124 135 102
E 124 137 97
E 124 144 102
E 124 149 101
E 124 157 98
E 124 159 97
E 125 134 106
E 125 148 105
E 125 149 91
E 125 157 101
E 126 128 94
E 126 133 97
E 126 134 101
E 126 147 100
E 126 149 86
E 126 152 97
E 126 155 93
E 127 128 94
E 127 131 93
E 127 140 96
E 127 142 102
E 127 145 106
E 127 146 94
E 127 156 108
E 128 131 108
E 128 137 96
E 128 138 103
E 129 139 89
E 129 147 109
E 129 154 98
E 129 157 96
E 129 160 86
E 130 138 94
E 130 140 97
E 130 143 102
E 130 146 95
E 130 147 102
E 130 160 100
E 131 133 98
E 131 135 98
E 131 136 93
E 131 145 108
E 131 148 105
E 131 150 104
E 131 153 92
E 131 159 95
E 132 135 91
E 132 136 105
E 132 146 100
E 132 149 100
E 132 159 93
E 133 135 96
E 133 137 87
E 133 141 101
E 133 153 104
E 133 156 100
E 134 139 102
E 134 142 94
E 134 143 106
E 134 149 101
E 134 154 100
E 134 159 101
E 135 145 103
E 135 152 107
E 135 158 102
E 136 144 107
E 136 148 96
E 136 153 99
E 136 158 94
E 137 148 107
E 137 149 104
E 137 151 98
E 137 152 102
E 137 157 98
E 138 139 96
E 138 146 108
E 138 147 100
E 138 152 98
E 138 153 109
E 138 158 90
E 139 149 94
E 139 155 97
E 139 156 104
E 139 160 103
E 140 147 94
E 140 148 99
E 140 149 108
E 140 151 104
E 140 155 99
E 141 143 103
E 141 145 95
E 141 146 101
E 141 154 101
E 141 159 102
E 142 154 106
E 143 154 100
E 143 159 99
E 144 152 99
E 144 155 89
E 144 159 96
E 145 146 98
E 145 147 95
E 145 148 100
E 145 151 97
E 146 152 99
E 146 153 97
E 146 156 99
E 146 157 97
E 147 149 105
E 147 158 98
E 148 154 99
E 148 156 92
E 148 159 101
E 149 153 98
E 149 160 96
E 150 152 104
E 150 155 102
E 150 156 106
E 151 156 103
E 151 157 98
E 154 157 96
E 155 160 96
E 158 159 95
E 159 160 90
END

SECTION Terminals
Terminals 40
T 1
T 2
T 3
T 4
T 5
T 6
T 7
T 8
T 9
T 10
T 11
T 12
T 13
T 14
T 15
T 16
T 17
T 18
T 19
T 20
T 21
T 22
T 23
T 24
T 25
T 26
T 27
T 28
T 29
T 30
T 31
T 32
T 33
T 34
T 35
T 36
T 37
T 38
T 39
T 40
END

EOF
